************************************************************************
file with basedata            : mm12_.bas
initial value random generator: 11260
************************************************************************
projects                      :  1
jobs (incl. supersource/sink ):  12
horizon                       :  77
RESOURCES
  - renewable                 :  2   R
  - nonrenewable              :  2   N
  - doubly constrained        :  0   D
************************************************************************
PROJECT INFORMATION:
pronr.  #jobs rel.date duedate tardcost  MPM-Time
    1     10      0       15        1       15
************************************************************************
PRECEDENCE RELATIONS:
jobnr.    #modes  #successors   successors
   1        1          3           2   3   4
   2        3          1           8
   3        3          1           6
   4        3          2           5   6
   5        3          3           8   9  11
   6        3          3           7   8  11
   7        3          1           9
   8        3          1          10
   9        3          1          12
  10        3          1          12
  11        3          1          12
  12        1          0        
************************************************************************
REQUESTS/DURATIONS:
jobnr. mode duration  R 1  R 2  N 1  N 2
------------------------------------------------------------------------
  1      1     0       0    0    0    0
  2      1     1       0    9    7    0
         2     7       7    0    5    0
         3     9       0    9    4    0
  3      1     3       7    0    0    4
         2     7       5    0    6    0
         3     7       6    0    0    3
  4      1     2       0    5   10    0
         2     5       0    4    0    3
         3     7       8    0    0    3
  5      1     1       7    0    5    0
         2     7       0    2    0    8
         3     9       2    0    0    8
  6      1     3       0    7    7    0
         2     8       7    0    0    4
         3     9       4    0    6    0
  7      1     2       3    0   10    0
         2     2       0    4    5    0
         3     5       0    4    0    2
  8      1     3       7    0    0   10
         2     4       7    0    0    9
         3     5       0    7    0    8
  9      1     2       0    5    3    0
         2     6       2    0    0    8
         3    10       0    3    0    4
 10      1     6       0    5    0    5
         2     7       0    5    6    0
         3     8       0    4    4    0
 11      1     1       9    0    0    4
         2     5       0    7    0    3
         3     8       0    6    0    3
 12      1     0       0    0    0    0
************************************************************************
RESOURCEAVAILABILITIES:
  R 1  R 2  N 1  N 2
   14   12   54   48
************************************************************************
MAXIMAL LAGS:
from  to  type  delay
    1   12   ES      0
    1    2   ES      0
    2   12   ES      0
    1    3   ES      0
    3   12   ES      0
    1    4   ES      0
    4   12   ES      0
    1    5   ES      0
    5   12   ES      0
    1    6   ES      0
    6   12   ES      0
    1    7   ES      0
    7   12   ES      0
    1    8   ES      0
    8   12   ES      0
    1    9   ES      0
    9   12   ES      0
    1   10   ES      0
   10   12   ES      0
    1   11   ES      0
   11   12   ES      0
    1   12   ES      0
    2    8   SS      5
    2    8   SE      4
    2    8   ES     -1
    2    8   EE      1
    3    6   SS     11
    3    6   SE      5
    3    6   ES     -2
    3    6   EE     -1
    4    5   SS     10
    4    5   SE      2
    4    5   ES     -4
    4    5   EE     -3
    4    6   SS     -4
    4    6   SE     -5
    4    6   ES     -9
    4    6   EE     11
    5    8   SS     -6
    5    8   SE     -2
    5    8   ES     -9
    5    8   EE     11
    5    9   SS      5
    5    9   SE     12
    5    9   ES     10
    5    9   EE     -7
    5   11   SS     -6
    5   11   SE     -6
    5   11   ES     11
    5   11   EE      3
    6    7   SS     -4
    6    7   SE     11
    6    7   ES      6
    6    7   EE     12
    6    8   SS      4
    6    8   SE      7
    6    8   ES     -3
    6    8   EE     -9
    6   11   SS     -6
    6   11   SE     -3
    6   11   ES     -5
    6   11   EE     -1
    7    9   SS     -7
    7    9   SE     -3
    7    9   ES    -12
    7    9   EE     10
    8   10   SS      5
    8   10   SE     -8
    8   10   ES     -4
    8   10   EE    -11
************************************************************************
